0  500 500
1  55  163
2  186 445
3  778 8
4  622 988
5  933 369
6  895 850
7  42  693
8  111 234
9  523 58
10 467 290
11 631 773
12 69  14
13 899 759
14 816 374
15 98  420
16 799 392
17 335 375
18 467 116